
n_res = 6;
rcap = [88, 81, 102, 84, 746, 759];
rtype = [1, 1, 1, 1, 2, 2];
n_tasks = 50;
modes =  [{1, 2, 3, 4, 5, 6}, {7, 8, 9, 10, 11, 12}, {13, 14, 15, 16, 17, 18}, {19, 20, 21, 22, 23, 24}, {25, 26, 27, 28, 29, 30}, {31, 32, 33, 34, 35, 36}, {37, 38, 39, 40, 41, 42}, {43, 44, 45, 46, 47, 48}, {49, 50, 51, 52, 53, 54}, {55, 56, 57, 58, 59, 60}, {61, 62, 63, 64, 65, 66}, {67, 68, 69, 70, 71, 72}, {73, 74, 75, 76, 77, 78}, {79, 80, 81, 82, 83, 84}, {85, 86, 87, 88, 89, 90}, {91, 92, 93, 94, 95, 96}, {97, 98, 99, 100, 101, 102}, {103, 104, 105, 106, 107, 108}, {109, 110, 111, 112, 113, 114}, {115, 116, 117, 118, 119, 120}, {121, 122, 123, 124, 125, 126}, {127, 128, 129, 130, 131, 132}, {133, 134, 135, 136, 137, 138}, {139, 140, 141, 142, 143, 144}, {145, 146, 147, 148, 149, 150}, {151, 152, 153, 154, 155, 156}, {157, 158, 159, 160, 161, 162}, {163, 164, 165, 166, 167, 168}, {169, 170, 171, 172, 173, 174}, {175, 176, 177, 178, 179, 180}, {181, 182, 183, 184, 185, 186}, {187, 188, 189, 190, 191, 192}, {193, 194, 195, 196, 197, 198}, {199, 200, 201, 202, 203, 204}, {205, 206, 207, 208, 209, 210}, {211, 212, 213, 214, 215, 216}, {217, 218, 219, 220, 221, 222}, {223, 224, 225, 226, 227, 228}, {229, 230, 231, 232, 233, 234}, {235, 236, 237, 238, 239, 240}, {241, 242, 243, 244, 245, 246}, {247, 248, 249, 250, 251, 252}, {253, 254, 255, 256, 257, 258}, {259, 260, 261, 262, 263, 264}, {265, 266, 267, 268, 269, 270}, {271, 272, 273, 274, 275, 276}, {277, 278, 279, 280, 281, 282}, {283, 284, 285, 286, 287, 288}, {289, 290, 291, 292, 293, 294}, {295, 296, 297, 298, 299, 300}];
succ =  [{27, 23, 22, 21, 20, 18, 7}, {35, 32, 31, 28, 26, 24, 22, 21, 17}, {29, 27, 21, 7}, {37, 35, 32, 31, 30, 29, 28, 27, 26, 24, 21}, {37, 32, 30, 27, 26, 25, 16}, {36, 35, 32, 31, 29, 26, 25, 24, 23, 21}, {37, 36, 35, 33, 32, 31, 30, 28, 26, 25, 24}, {42, 39, 37, 31, 28, 25, 18}, {42, 37, 35, 32, 29, 27, 23, 21}, {39, 37, 32, 31, 26, 25, 19}, {42, 39, 37, 35, 34, 30, 29, 27, 26}, {37, 35, 31, 30, 29, 27, 21}, {42, 39, 27, 25, 18}, {42, 39, 36, 35, 32, 31, 30, 26, 25}, {42, 36, 35, 29, 25, 23}, {42, 36, 35, 31, 29, 21}, {42, 34, 30, 29, 27, 25}, {40, 36, 35, 30, 29, 26}, {42, 35, 33, 30, 27}, {50, 42, 40, 39, 36, 31}, {50, 41, 39, 34, 33}, {50, 48, 42, 40, 38, 36}, {50, 40, 39, 30}, {50, 46, 42, 40, 39, 38}, {50, 49, 48, 47, 45, 41, 40}, {50, 48, 44, 41, 38}, {48, 47, 40, 36}, {50, 47, 46, 34}, {48, 41, 33}, {49, 44, 41, 38}, {48, 44, 41, 38}, {50, 48, 41, 38}, {46, 44, 38}, {49, 48, 45, 44, 43}, {47, 45, 44, 43}, {45, 43, 41}, {45, 44, 41}, {47, 45, 43}, {49, 44, 43}, {44, 43}, {46}, {44}, {}, {}, {}, {}, {}, {}, {}, {}];
n_opt = 300;
dur = [2, 5, 8, 10, 13, 24, 6, 13, 14, 20, 25, 29, 3, 8, 11, 21, 25, 27, 2, 9, 14, 18, 28, 30, 1, 18, 19, 25, 28, 30, 1, 3, 14, 15, 25, 26, 2, 8, 9, 10, 11, 12, 3, 4, 17, 22, 26, 30, 18, 21, 22, 23, 24, 30, 4, 6, 15, 16, 17, 27, 2, 8, 23, 27, 28, 29, 8, 12, 13, 14, 19, 20, 1, 14, 15, 22, 23, 30, 1, 5, 6, 14, 18, 30, 2, 3, 10, 26, 29, 30, 3, 8, 9, 14, 23, 24, 7, 8, 11, 14, 29, 30, 1, 4, 8, 15, 16, 19, 7, 13, 15, 20, 21, 22, 3, 9, 10, 19, 21, 25, 9, 11, 17, 25, 26, 30, 6, 7, 10, 19, 22, 23, 2, 3, 7, 14, 18, 29, 6, 10, 11, 13, 14, 27, 1, 10, 14, 15, 16, 21, 6, 8, 9, 10, 11, 28, 2, 7, 8, 11, 22, 25, 2, 7, 8, 20, 23, 27, 2, 19, 20, 23, 24, 30, 5, 6, 13, 14, 23, 26, 3, 18, 19, 22, 24, 26, 9, 10, 11, 13, 20, 21, 7, 9, 12, 13, 16, 24, 1, 3, 4, 5, 7, 24, 2, 20, 21, 22, 26, 30, 7, 11, 14, 19, 20, 22, 7, 8, 9, 19, 25, 26, 7, 14, 15, 23, 24, 30, 2, 7, 14, 17, 23, 26, 10, 15, 19, 20, 25, 26, 1, 5, 8, 10, 17, 30, 1, 4, 5, 6, 14, 25, 3, 11, 15, 16, 23, 26, 14, 18, 19, 22, 25, 29, 6, 7, 9, 12, 18, 19, 4, 17, 19, 20, 22, 24, 4, 7, 17, 20, 25, 27, 11, 17, 18, 19, 26, 29, 1, 4, 9, 11, 28, 30, 5, 7, 9, 10, 19, 21];
rreq = [|22, 20, 16, 13, 10, 8, 26, 25, 19, 17, 15, 10, 20, 18, 18, 16, 13, 11, 23, 20, 16, 11, 9, 4, 13, 11, 11, 8, 6, 6, 20, 20, 20, 20, 20, 20, 10, 9, 9, 9, 9, 9, 19, 18, 18, 17, 16, 16, 14, 13, 13, 13, 11, 11, 29, 27, 26, 25, 21, 20, 23, 19, 19, 17, 13, 13, 2, 2, 2, 2, 2, 2, 19, 16, 14, 10, 8, 6, 17, 14, 14, 12, 12, 11, 16, 13, 13, 12, 10, 9, 28, 23, 23, 18, 13, 10, 21, 21, 19, 19, 18, 16, 9, 8, 6, 5, 5, 4, 15, 14, 13, 11, 10, 9, 21, 21, 20, 20, 19, 19, 19, 19, 19, 19, 19, 19, 18, 18, 17, 16, 14, 13, 23, 18, 18, 9, 6, 3, 10, 8, 6, 6, 4, 3, 14, 13, 10, 10, 8, 6, 24, 19, 15, 14, 9, 7, 29, 27, 25, 25, 22, 22, 5, 5, 4, 3, 2, 2, 30, 29, 28, 28, 28, 27, 24, 24, 24, 24, 24, 24, 22, 21, 21, 19, 16, 15, 19, 16, 11, 10, 8, 3, 26, 24, 23, 22, 20, 17, 17, 15, 13, 9, 9, 5, 17, 14, 11, 8, 3, 1, 18, 17, 16, 14, 13, 10, 11, 10, 10, 9, 7, 7, 27, 27, 25, 24, 21, 19, 11, 9, 8, 6, 6, 4, 21, 19, 14, 12, 6, 3, 24, 21, 18, 14, 9, 3, 4, 4, 4, 4, 4, 4, 22, 22, 22, 21, 20, 20, 11, 11, 10, 9, 8, 8, 18, 15, 11, 10, 8, 5, 19, 17, 13, 10, 8, 5, 19, 18, 16, 15, 14, 13, 23, 22, 22, 21, 19, 18, 13, 11, 9, 6, 6, 1, 9, 9, 9, 9, 8, 8
 |12, 12, 11, 11, 10, 10, 4, 4, 4, 4, 4, 4, 18, 18, 16, 13, 11, 10, 29, 28, 26, 25, 24, 23, 23, 18, 15, 14, 6, 5, 17, 16, 10, 9, 4, 4, 28, 28, 28, 28, 28, 28, 25, 20, 20, 16, 16, 14, 11, 10, 9, 8, 7, 7, 29, 26, 22, 21, 20, 16, 8, 6, 5, 5, 2, 2, 19, 19, 16, 11, 8, 4, 14, 11, 10, 7, 3, 2, 5, 4, 3, 2, 2, 1, 23, 19, 13, 11, 5, 3, 27, 26, 25, 24, 21, 21, 26, 22, 19, 14, 12, 9, 29, 25, 22, 22, 19, 16, 19, 18, 17, 16, 16, 14, 23, 21, 18, 15, 14, 11, 23, 18, 13, 10, 9, 4, 22, 19, 16, 14, 12, 8, 19, 17, 17, 16, 16, 15, 26, 25, 21, 18, 13, 10, 8, 7, 7, 7, 6, 6, 20, 18, 18, 16, 14, 14, 6, 5, 5, 5, 5, 5, 18, 14, 14, 9, 8, 5, 23, 20, 19, 19, 18, 17, 25, 20, 16, 11, 9, 6, 20, 18, 17, 16, 15, 15, 23, 16, 16, 9, 6, 3, 21, 21, 19, 19, 18, 17, 26, 25, 23, 22, 21, 21, 15, 14, 13, 11, 9, 7, 26, 24, 24, 23, 22, 20, 14, 13, 13, 12, 12, 11, 1, 1, 1, 1, 1, 1, 19, 18, 16, 16, 13, 12, 26, 21, 21, 18, 14, 12, 19, 16, 16, 14, 10, 9, 29, 26, 26, 22, 21, 19, 17, 16, 14, 11, 9, 9, 26, 25, 23, 22, 19, 19, 26, 22, 16, 12, 10, 2, 28, 28, 28, 28, 28, 28, 23, 22, 20, 15, 14, 10, 18, 16, 13, 9, 4, 3, 25, 24, 23, 22, 21, 20, 10, 8, 7, 6, 5, 5
 |28, 26, 24, 21, 20, 15, 27, 24, 17, 15, 11, 6, 9, 8, 8, 6, 6, 5, 14, 12, 10, 8, 7, 5, 24, 23, 22, 21, 19, 18, 30, 26, 23, 20, 19, 16, 14, 12, 10, 9, 8, 7, 25, 24, 24, 23, 21, 21, 20, 18, 16, 16, 12, 12, 26, 24, 20, 19, 16, 15, 24, 23, 20, 19, 16, 14, 27, 21, 16, 11, 9, 3, 26, 25, 23, 20, 18, 17, 15, 13, 12, 10, 9, 9, 26, 21, 16, 14, 11, 5, 23, 19, 18, 14, 13, 10, 14, 13, 13, 12, 11, 11, 28, 27, 25, 22, 22, 19, 25, 23, 21, 19, 19, 16, 12, 12, 12, 12, 12, 12, 20, 18, 17, 15, 13, 12, 24, 23, 23, 23, 23, 23, 27, 23, 20, 16, 11, 7, 14, 13, 13, 13, 12, 12, 20, 17, 17, 14, 8, 8, 21, 21, 20, 20, 18, 18, 30, 27, 22, 21, 15, 14, 10, 10, 9, 8, 8, 7, 25, 24, 23, 22, 22, 21, 10, 10, 10, 10, 10, 10, 29, 28, 28, 28, 28, 28, 10, 9, 7, 6, 4, 3, 8, 5, 5, 3, 3, 1, 25, 21, 15, 12, 10, 3, 8, 7, 6, 6, 4, 4, 3, 3, 3, 3, 3, 3, 22, 20, 17, 14, 11, 8, 23, 22, 20, 19, 18, 18, 16, 15, 13, 10, 8, 7, 16, 15, 14, 12, 11, 9, 18, 14, 11, 8, 7, 3, 13, 12, 11, 9, 9, 8, 26, 23, 23, 20, 20, 19, 25, 24, 23, 23, 22, 22, 26, 22, 19, 14, 13, 9, 20, 18, 14, 13, 9, 8, 18, 13, 12, 8, 8, 3, 12, 10, 9, 8, 7, 5, 15, 15, 12, 10, 9, 8, 23, 20, 19, 19, 17, 15
 |25, 18, 15, 14, 10, 4, 4, 3, 3, 2, 2, 1, 25, 24, 20, 19, 16, 14, 15, 13, 12, 11, 11, 10, 19, 14, 13, 10, 4, 2, 17, 13, 10, 7, 5, 1, 24, 22, 20, 17, 14, 14, 12, 10, 6, 6, 4, 2, 27, 23, 23, 18, 17, 13, 10, 9, 8, 8, 8, 7, 28, 28, 28, 27, 26, 26, 13, 10, 7, 7, 4, 2, 16, 16, 14, 9, 8, 5, 20, 19, 19, 18, 18, 18, 19, 17, 12, 9, 8, 2, 22, 19, 18, 16, 15, 14, 21, 18, 16, 16, 13, 12, 12, 10, 9, 8, 4, 4, 21, 16, 13, 11, 9, 4, 10, 9, 9, 9, 9, 9, 15, 14, 14, 14, 13, 13, 25, 24, 19, 18, 13, 12, 20, 20, 17, 17, 13, 12, 27, 26, 25, 25, 24, 24, 16, 15, 12, 11, 10, 9, 14, 11, 10, 9, 8, 6, 3, 3, 3, 3, 3, 3, 26, 25, 24, 22, 21, 21, 25, 20, 19, 14, 8, 7, 25, 23, 23, 20, 20, 18, 29, 28, 27, 27, 26, 25, 5, 4, 4, 4, 4, 4, 14, 13, 9, 8, 5, 1, 18, 18, 17, 17, 17, 16, 26, 21, 20, 16, 8, 7, 20, 19, 19, 19, 19, 19, 14, 11, 11, 9, 6, 5, 15, 15, 13, 11, 11, 8, 16, 16, 13, 12, 10, 10, 29, 28, 28, 28, 27, 27, 17, 16, 15, 15, 14, 14, 24, 23, 20, 16, 14, 12, 22, 19, 17, 15, 12, 12, 22, 22, 20, 16, 13, 10, 24, 24, 24, 24, 24, 24, 27, 22, 19, 18, 13, 10, 24, 20, 16, 16, 10, 8, 28, 27, 26, 23, 22, 21, 20, 17, 17, 13, 8, 5, 16, 14, 14, 14, 12, 12
 |12, 8, 6, 5, 4, 2, 8, 7, 7, 6, 3, 2, 26, 24, 22, 18, 16, 15, 19, 17, 15, 12, 10, 9, 22, 17, 14, 11, 10, 5, 20, 18, 15, 11, 9, 8, 6, 5, 4, 4, 3, 3, 24, 23, 23, 23, 23, 23, 26, 22, 19, 11, 7, 3, 22, 21, 20, 17, 17, 16, 30, 29, 29, 28, 28, 27, 9, 8, 7, 4, 3, 2, 17, 17, 13, 12, 8, 4, 26, 24, 24, 22, 21, 20, 24, 23, 23, 22, 20, 20, 6, 5, 5, 5, 5, 5, 29, 29, 29, 28, 27, 27, 30, 27, 25, 23, 21, 19, 22, 21, 19, 18, 17, 15, 21, 20, 15, 14, 11, 7, 20, 19, 17, 16, 16, 14, 15, 13, 13, 11, 7, 6, 29, 25, 24, 23, 21, 19, 24, 21, 19, 19, 15, 15, 17, 15, 14, 14, 13, 11, 18, 17, 17, 17, 17, 17, 25, 23, 16, 10, 7, 3, 24, 21, 18, 14, 10, 2, 28, 27, 25, 22, 21, 19, 21, 21, 20, 19, 18, 16, 1, 1, 1, 1, 1, 1, 18, 14, 12, 7, 7, 4, 30, 23, 19, 16, 10, 4, 29, 27, 26, 25, 23, 21, 19, 19, 17, 14, 11, 9, 28, 24, 19, 19, 14, 13, 27, 23, 22, 19, 18, 16, 8, 7, 7, 6, 3, 3, 15, 12, 12, 9, 7, 6, 5, 4, 4, 4, 3, 3, 16, 13, 8, 8, 6, 2, 27, 26, 26, 26, 26, 26, 9, 8, 8, 7, 6, 6, 9, 7, 7, 6, 5, 4, 27, 22, 20, 18, 11, 9, 10, 9, 9, 8, 8, 8, 27, 26, 23, 18, 18, 13, 22, 21, 15, 12, 5, 4, 4, 4, 3, 2, 2, 1, 20, 18, 18, 16, 16, 15
 |22, 20, 17, 13, 10, 3, 22, 20, 20, 18, 18, 16, 17, 16, 15, 15, 15, 14, 21, 20, 19, 19, 18, 17, 14, 11, 9, 6, 4, 3, 27, 27, 26, 25, 23, 23, 16, 16, 16, 16, 16, 16, 12, 11, 10, 9, 8, 7, 26, 21, 19, 14, 7, 3, 6, 5, 4, 4, 3, 3, 19, 17, 17, 15, 11, 11, 18, 14, 12, 12, 10, 7, 4, 3, 3, 3, 2, 2, 28, 20, 20, 14, 6, 5, 8, 7, 7, 7, 7, 7, 19, 18, 14, 13, 9, 6, 29, 27, 26, 24, 24, 21, 27, 27, 24, 24, 20, 20, 27, 25, 24, 22, 22, 19, 23, 21, 14, 13, 7, 4, 21, 17, 15, 13, 11, 9, 12, 11, 11, 11, 11, 11, 24, 22, 17, 15, 12, 10, 22, 19, 14, 11, 9, 5, 23, 21, 21, 20, 20, 19, 30, 26, 25, 24, 22, 18, 19, 18, 18, 18, 18, 18, 18, 17, 17, 17, 16, 16, 10, 9, 8, 6, 6, 4, 13, 10, 8, 7, 5, 4, 27, 27, 23, 21, 19, 17, 13, 13, 9, 6, 6, 2, 18, 18, 15, 12, 7, 4, 23, 20, 14, 11, 11, 5, 14, 10, 10, 8, 4, 4, 13, 13, 12, 10, 10, 8, 22, 21, 19, 17, 14, 10, 19, 19, 18, 18, 18, 17, 30, 29, 28, 26, 26, 24, 25, 24, 24, 23, 22, 22, 30, 29, 29, 29, 29, 29, 16, 12, 11, 8, 8, 6, 26, 21, 17, 15, 12, 8, 26, 24, 24, 23, 23, 22, 2, 2, 2, 2, 2, 2, 20, 19, 19, 18, 17, 17, 28, 23, 18, 14, 7, 3, 13, 12, 12, 11, 9, 9, 9, 9, 8, 8, 6, 6, 17, 17, 17, 16, 15, 15|];